param set_len = 28;
param target := 3753363669;
param values := [1] 488303610 [2] 49497896 [3] 422259850 [4] 166447234 [5] 62891415 [6] 110657384 [7] 261454246 [8] 215997590 [9] 393484726 [10] 304405188 [11] 284688734 [12] 227104969 [13] 418445430 [14] 37945758 [15] 442769836 [16] 351798886 [17] 161312905 [18] 199822453 [19] 295399123 [20] 405270785 [21] 362498410 [22] 102898314 [23] 298138970 [24] 12400767 [25] 535076052 [26] 103066839 [27] 476778409 [28] 450061000 ;
